(set-logic SLHV)
(declare-hvar emp IntHeap)
(declare-locvar nil IntLoc)
(declare-datatype pt_record_0 ((Pt_R_0 (loc IntLoc))))
(declare-datatype pt_record_1 ((Pt_R_1 (data Int))))
(declare-const invalidFree_5 Bool)
(declare-const loc_5 Int)
(declare-const invalidFree_4 Bool)
(declare-hvar H_4 IntHeap)
(declare-hvar H_5 IntHeap)
(declare-hvar AH_4 IntHeap)
(declare-hvar AH_5 IntHeap)
(declare-const $r_main0_4 Int)
(declare-const $r_main0_5 Int)
(declare-const $i6_main0_4 Int)
(declare-const $i6_main0_5 Int)
(declare-const $i2_main0_4 Int)
(declare-const $i2_main0_5 Int)
(declare-const $i1_free_g20_4 Int)
(declare-const $i1_free_g20_5 Int)
(declare-locvar $p5_main0_4 IntLoc)
(declare-locvar $p5_main0_5 IntLoc)
(declare-locvar $p4_main0_4 IntLoc)
(declare-locvar $p4_main0_5 IntLoc)
(declare-locvar $p4_free_g20_4 IntLoc)
(declare-locvar $p4_free_g20_5 IntLoc)
(declare-locvar $p3_main0_4 IntLoc)
(declare-locvar $p3_main0_5 IntLoc)
(declare-locvar $p3_free_g20_4 IntLoc)
(declare-locvar $p3_free_g20_5 IntLoc)
(declare-locvar $p2_free_g20_4 IntLoc)
(declare-locvar $p2_free_g20_5 IntLoc)
(declare-locvar $p1_main0_4 IntLoc)
(declare-locvar $p1_main0_5 IntLoc)
(declare-locvar $p1_free_g10_4 IntLoc)
(declare-locvar $p1_free_g10_5 IntLoc)
(declare-locvar $p0_main0_4 IntLoc)
(declare-locvar $p0_main0_5 IntLoc)
(declare-locvar $p0_free_g20_4 IntLoc)
(declare-locvar $p0_free_g20_5 IntLoc)
(declare-locvar $p0_free_g10_4 IntLoc)
(declare-locvar $p0_free_g10_5 IntLoc)
(declare-locvar $M.0_4 IntLoc)
(declare-locvar $M.0_5 IntLoc)
(declare-const loc_4 Int)
(declare-const $r_main01_5 Int)
(declare-const invalidFree_3 Bool)
(declare-hvar H_3 IntHeap)
(declare-hvar AH_3 IntHeap)
(declare-const $r_main0_3 Int)
(declare-const $i6_main0_3 Int)
(declare-const $i2_main0_3 Int)
(declare-const $i1_free_g20_3 Int)
(declare-locvar $p5_main0_3 IntLoc)
(declare-locvar $p4_main0_3 IntLoc)
(declare-locvar $p4_free_g20_3 IntLoc)
(declare-locvar $p3_main0_3 IntLoc)
(declare-locvar $p3_free_g20_3 IntLoc)
(declare-locvar $p2_free_g20_3 IntLoc)
(declare-locvar $p1_main0_3 IntLoc)
(declare-locvar $p1_free_g10_3 IntLoc)
(declare-locvar $p0_main0_3 IntLoc)
(declare-locvar $p0_free_g20_3 IntLoc)
(declare-locvar $p0_free_g10_3 IntLoc)
(declare-locvar $M.0_3 IntLoc)
(declare-const loc_3 Int)
(declare-const invalidFree2_4 Bool)
(declare-hvar H5_4 IntHeap)
(declare-hvar AH4_4 IntHeap)
(declare-locvar $p4_free_g201_4 IntLoc)
(declare-locvar $p3_free_g201_4 IntLoc)
(declare-locvar $p2_free_g201_4 IntLoc)
(declare-hvar h6_4 IntHeap)
(declare-locvar l10_4 IntLoc)
(declare-const d9_4 Int)
(declare-const d7_4 Int)
(declare-locvar l9_4 IntLoc)
(declare-const d8_4 Int)
(declare-hvar ah3 IntHeap)
(declare-const d10_4 Int)
(declare-hvar ah4_4 IntHeap)
(declare-locvar l7_4 IntLoc)
(declare-hvar h4_4 IntHeap)
(declare-const $r_main01_4 Int)
(declare-const $r_main0_2 Int)
(declare-const $i6_main0_2 Int)
(declare-const $i2_main0_2 Int)
(declare-locvar $p5_main0_2 IntLoc)
(declare-locvar $p4_main0_2 IntLoc)
(declare-locvar $p4_free_g20_2 IntLoc)
(declare-locvar $p3_main0_2 IntLoc)
(declare-locvar $p3_free_g20_2 IntLoc)
(declare-locvar $p2_free_g20_2 IntLoc)
(declare-locvar $p1_main0_2 IntLoc)
(declare-locvar $p0_main0_2 IntLoc)
(declare-const invalidFree1_3 Bool)
(declare-hvar H4_3 IntHeap)
(declare-hvar AH3_3 IntHeap)
(declare-locvar $p1_free_g101_3 IntLoc)
(declare-locvar $p0_free_g201_3 IntLoc)
(declare-locvar $p0_free_g101_3 IntLoc)
(declare-const $i1_free_g201_3 Int)
(declare-locvar $M.03_3 IntLoc)
(declare-const invalidFree_2 Bool)
(declare-hvar h3_3 IntHeap)
(declare-locvar l6_3 IntLoc)
(declare-const d5_3 Int)
(declare-hvar H_2 IntHeap)
(declare-const d3_3 Int)
(declare-locvar l5_3 IntLoc)
(declare-const d4_3 Int)
(declare-hvar ah1 IntHeap)
(declare-hvar AH_2 IntHeap)
(declare-const d6_3 Int)
(declare-hvar ah2_3 IntHeap)
(declare-locvar $M.0_2 IntLoc)
(declare-const loc_2 Int)
(declare-const $i1_free_g20_2 Int)
(declare-locvar $p1_free_g10_2 IntLoc)
(declare-locvar $p0_free_g20_2 IntLoc)
(declare-locvar $p0_free_g10_2 IntLoc)
(declare-const $r_main01_3 Int)
(declare-const invalidFree_1 Bool)
(declare-const $r_main0_1 Int)
(declare-const $i6_main0_1 Int)
(declare-const $i2_main0_1 Int)
(declare-const $i1_free_g20_1 Int)
(declare-locvar $p4_free_g20_1 IntLoc)
(declare-locvar $p3_free_g20_1 IntLoc)
(declare-locvar $p2_free_g20_1 IntLoc)
(declare-locvar $p1_main0_1 IntLoc)
(declare-locvar $p1_free_g10_1 IntLoc)
(declare-locvar $p0_main0_1 IntLoc)
(declare-locvar $p0_free_g20_1 IntLoc)
(declare-locvar $p0_free_g10_1 IntLoc)
(declare-locvar $M.0_1 IntLoc)
(declare-hvar H3_2 IntHeap)
(declare-hvar AH2_2 IntHeap)
(declare-locvar $p5_main01_2 IntLoc)
(declare-locvar $p4_main01_2 IntLoc)
(declare-locvar $p3_main01_2 IntLoc)
(declare-hvar h1_2 IntHeap)
(declare-locvar l3_2 IntLoc)
(declare-hvar H2_2 IntHeap)
(declare-locvar l2_2 IntLoc)
(declare-hvar AH_1 IntHeap)
(declare-const d2_2 Int)
(declare-hvar H_1 IntHeap)
(declare-const loc_1 Int)
(declare-locvar $p5_main0_1 IntLoc)
(declare-locvar $p4_main0_1 IntLoc)
(declare-locvar $p3_main0_1 IntLoc)
(declare-const invalidFree_0 Bool)
(declare-const $r_main0_0 Int)
(declare-const $i6_main0_0 Int)
(declare-const $i2_main0_0 Int)
(declare-const $i1_free_g20_0 Int)
(declare-locvar $p5_main0_0 IntLoc)
(declare-locvar $p4_main0_0 IntLoc)
(declare-locvar $p4_free_g20_0 IntLoc)
(declare-locvar $p3_main0_0 IntLoc)
(declare-locvar $p3_free_g20_0 IntLoc)
(declare-locvar $p2_free_g20_0 IntLoc)
(declare-locvar $p1_free_g10_0 IntLoc)
(declare-locvar $p0_free_g20_0 IntLoc)
(declare-locvar $p0_free_g10_0 IntLoc)
(declare-hvar H1_1 IntHeap)
(declare-hvar AH1_1 IntHeap)
(declare-locvar $p1_main01_1 IntLoc)
(declare-locvar $p0_main01_1 IntLoc)
(declare-locvar $M.02_1 IntLoc)
(declare-locvar l1_1 IntLoc)
(declare-hvar AH_0 IntHeap)
(declare-const d1_1 Int)
(declare-hvar H_0 IntHeap)
(declare-locvar $M.01_1 IntLoc)
(declare-const loc_0 Int)
(assert
 (let (($x1004 (= loc_5 5)))
 (let (($x1176 (= invalidFree_5 invalidFree_4)))
 (let (($x997 (= H_5 H_4)))
 (let (($x998 (and (and true (= AH_5 AH_4)) $x997)))
 (let (($x1010 (= $r_main0_5 $r_main0_4)))
 (let (($x990 (= $i6_main0_5 $i6_main0_4)))
 (let (($x987 (= $i2_main0_5 $i2_main0_4)))
 (let (($x991 (and (and (and true (= $i1_free_g20_5 $i1_free_g20_4)) $x987) $x990)))
 (let (($x1011 (and $x991 $x1010)))
 (let (($x980 (= $p5_main0_5 $p5_main0_4)))
 (let (($x977 (= $p4_main0_5 $p4_main0_4)))
 (let (($x974 (= $p4_free_g20_5 $p4_free_g20_4)))
 (let (($x971 (= $p3_main0_5 $p3_main0_4)))
 (let (($x968 (= $p3_free_g20_5 $p3_free_g20_4)))
 (let (($x965 (= $p2_free_g20_5 $p2_free_g20_4)))
 (let (($x962 (= $p1_main0_5 $p1_main0_4)))
 (let (($x959 (= $p1_free_g10_5 $p1_free_g10_4)))
 (let (($x956 (= $p0_main0_5 $p0_main0_4)))
 (let (($x953 (= $p0_free_g20_5 $p0_free_g20_4)))
 (let (($x950 (= $p0_free_g10_5 $p0_free_g10_4)))
 (let (($x960 (and (and (and (and (and true (= $M.0_5 $M.0_4)) $x950) $x953) $x956) $x959)))
 (let (($x978 (and (and (and (and (and (and $x960 $x962) $x965) $x968) $x971) $x974) $x977)))
 (let (($x981 (and $x978 $x980)))
 (let (($x1183 (and (and (and (or true invalidFree_4) (and true true)) $x981) $x1011)))
 (let (($x827 (= loc_4 5)))
 (let (($x943 (= $r_main0_5 $r_main01_5)))
 (let (($x944 (and $x943 true)))
 (let (($x940 (= $r_main01_5 0)))
 (let (($x1170 (or $x940 invalidFree_4)))
 (let (($x1178 (and (and (and (and (and (and $x1170 $x944) $x981) $x991) $x998) $x1176) $x1004)))
 (let (($x929 (= loc_4 3)))
 (let (($x1188 (and (=> $x929 $x1178) (=> $x827 (and (and (and $x1183 $x998) $x1176) $x1004)))))
 (let (($x1124 (= invalidFree_4 invalidFree_3)))
 (let (($x820 (= H_4 H_3)))
 (let (($x821 (and (and true (= AH_4 AH_3)) $x820)))
 (let (($x833 (= $r_main0_4 $r_main0_3)))
 (let (($x813 (= $i6_main0_4 $i6_main0_3)))
 (let (($x810 (= $i2_main0_4 $i2_main0_3)))
 (let (($x814 (and (and (and true (= $i1_free_g20_4 $i1_free_g20_3)) $x810) $x813)))
 (let (($x834 (and $x814 $x833)))
 (let (($x803 (= $p5_main0_4 $p5_main0_3)))
 (let (($x800 (= $p4_main0_4 $p4_main0_3)))
 (let (($x797 (= $p4_free_g20_4 $p4_free_g20_3)))
 (let (($x794 (= $p3_main0_4 $p3_main0_3)))
 (let (($x791 (= $p3_free_g20_4 $p3_free_g20_3)))
 (let (($x788 (= $p2_free_g20_4 $p2_free_g20_3)))
 (let (($x785 (= $p1_main0_4 $p1_main0_3)))
 (let (($x782 (= $p1_free_g10_4 $p1_free_g10_3)))
 (let (($x779 (= $p0_main0_4 $p0_main0_3)))
 (let (($x776 (= $p0_free_g20_4 $p0_free_g20_3)))
 (let (($x773 (= $p0_free_g10_4 $p0_free_g10_3)))
 (let (($x783 (and (and (and (and (and true (= $M.0_4 $M.0_3)) $x773) $x776) $x779) $x782)))
 (let (($x786 (and $x783 $x785)))
 (let (($x804 (and (and (and (and (and (and $x786 $x788) $x791) $x794) $x797) $x800) $x803)))
 (let (($x1131 (and (and (and (or true invalidFree_3) (and true true)) $x804) $x834)))
 (let (($x1133 (and (and $x1131 $x821) $x1124)))
 (let (($x757 (= loc_3 6)))
 (let (($x934 (and $x757 (not (= $i1_free_g20_3 1)))))
 (let (($x926 (and (and (and $x786 $x794) $x800) $x803)))
 (let (($x1158 (= invalidFree_4 invalidFree2_4)))
 (let (($x919 (= H_4 H5_4)))
 (let (($x917 (= AH_4 AH4_4)))
 (let (($x915 (= $p4_free_g20_4 $p4_free_g201_4)))
 (let (($x913 (= $p3_free_g20_4 $p3_free_g201_4)))
 (let (($x912 (= $p2_free_g20_4 $p2_free_g201_4)))
 (let (($x920 (and (and (and (and $x912 $x913) $x915) $x917) $x919)))
 (let (($x1140 (= invalidFree2_4 invalidFree_3)))
 (let (($x1141 (and invalidFree_3 $x1140)))
 (let (($x859 (= H5_4 h6_4)))
 (let (($x860 (= $p4_free_g201_4 l10_4)))
 (let (($x864 (= H_3 (uplus h6_4 (pt l10_4 (Pt_R_1 d9_4))))))
 (let (($x867 (= d7_4 1)))
 (let (($x869 (= $p4_free_g201_4 l9_4)))
 (let (($x873 (= H_3 (uplus h6_4 (pt l9_4 (Pt_R_1 d8_4))))))
 (let (($x876 (= d7_4 2)))
 (let (($x878 (and (=> $x876 (and (and $x873 $x869) $x859)) (=> $x867 (and (and $x864 $x860) $x859)))))
 (let (($x879 (= AH4_4 ah3)))
 (let (($x883 (= AH_3 (uplus ah3 (pt $p4_free_g201_4 (Pt_R_1 d7_4))))))
 (let (($x885 (and (and $x883 $x879) $x878)))
 (let (($x1148 (or (= $p4_free_g201_4 nil) (= ah4_4 (uplus AH_3 (pt $p4_free_g201_4 (Pt_R_1 d10_4)))))))
 (let (($x1149 (and $x1148 invalidFree2_4)))
 (let (($x887 (= $p4_free_g201_4 $p3_free_g201_4)))
 (let (($x1152 (or $x887 invalidFree_3)))
 (let (($x896 (and (= H_3 (uplus h4_4 (pt $p2_free_g201_4 (Pt_R_0 l7_4)))) (= $p3_free_g201_4 l7_4))))
 (let (($x1153 (or $x896 invalidFree_3)))
 (let (($x907 (= $p2_free_g201_4 $M.0_3)))
 (let (($x1154 (or $x907 invalidFree_3)))
 (let (($x1157 (and (and (and $x1154 $x1153) $x1152) (or (or $x1149 (and $x885 $x1140)) $x1141))))
 (let (($x857 (= $i1_free_g20_3 1)))
 (let (($x858 (and $x757 $x857)))
 (let (($x1164 (=> $x858 (and (and (and (and $x1157 (and $x920 $x1158)) $x926) $x834) $x929))))
 (let (($x766 (= $r_main0_4 $r_main01_4)))
 (let (($x767 (and $x766 true)))
 (let (($x763 (= $r_main01_4 0)))
 (let (($x1118 (or $x763 invalidFree_3)))
 (let (($x1126 (and (and (and (and (and (and $x1118 $x767) $x804) $x814) $x821) $x1124) $x827)))
 (let (($x659 (= loc_3 3)))
 (let (($x1165 (and (and (=> $x659 $x1126) (=> (= loc_3 5) (and $x1133 $x827))) $x1164)))
 (let (($x654 (= $r_main0_3 $r_main0_2)))
 (let (($x631 (= $i6_main0_3 $i6_main0_2)))
 (let (($x753 (and (and (and true (= $i2_main0_3 $i2_main0_2)) $x631) $x654)))
 (let (($x621 (= $p5_main0_3 $p5_main0_2)))
 (let (($x618 (= $p4_main0_3 $p4_main0_2)))
 (let (($x615 (= $p4_free_g20_3 $p4_free_g20_2)))
 (let (($x612 (= $p3_main0_3 $p3_main0_2)))
 (let (($x609 (= $p3_free_g20_3 $p3_free_g20_2)))
 (let (($x606 (= $p2_free_g20_3 $p2_free_g20_2)))
 (let (($x603 (= $p1_main0_3 $p1_main0_2)))
 (let (($x745 (and (and (and (and true (= $p0_main0_3 $p0_main0_2)) $x603) $x606) $x609)))
 (let (($x749 (and (and (and (and $x745 $x612) $x615) $x618) $x621)))
 (let (($x1109 (= invalidFree_3 invalidFree1_3)))
 (let (($x738 (= H_3 H4_3)))
 (let (($x736 (= AH_3 AH3_3)))
 (let (($x734 (= $p1_free_g10_3 $p1_free_g101_3)))
 (let (($x732 (= $p0_free_g20_3 $p0_free_g201_3)))
 (let (($x730 (= $p0_free_g10_3 $p0_free_g101_3)))
 (let (($x731 (and (and (= $M.0_3 $M.03_3) (= $i1_free_g20_3 $i1_free_g201_3)) $x730)))
 (let (($x739 (and (and (and (and $x731 $x732) $x734) $x736) $x738)))
 (let (($x678 (= $i1_free_g201_3 0)))
 (let (($x684 (or (and (and (distinct $p0_free_g201_3 nil) true) (= $i1_free_g201_3 1)) (and (not (and (distinct $p0_free_g201_3 nil) true)) $x678))))
 (let (($x686 (= $p0_free_g201_3 $M.03_3)))
 (let (($x1088 (or $x686 invalidFree1_3)))
 (let (($x688 (= $M.03_3 nil)))
 (let (($x1089 (or $x688 invalidFree1_3)))
 (let (($x1090 (= invalidFree1_3 invalidFree_2)))
 (let (($x1091 (and invalidFree_2 $x1090)))
 (let (($x690 (= H4_3 h3_3)))
 (let (($x691 (= $p1_free_g101_3 l6_3)))
 (let (($x695 (= H_2 (uplus h3_3 (pt l6_3 (Pt_R_1 d5_3))))))
 (let (($x698 (= d3_3 1)))
 (let (($x700 (= $p1_free_g101_3 l5_3)))
 (let (($x704 (= H_2 (uplus h3_3 (pt l5_3 (Pt_R_1 d4_3))))))
 (let (($x707 (= d3_3 2)))
 (let (($x709 (and (=> $x707 (and (and $x704 $x700) $x690)) (=> $x698 (and (and $x695 $x691) $x690)))))
 (let (($x710 (= AH3_3 ah1)))
 (let (($x714 (= AH_2 (uplus ah1 (pt $p1_free_g101_3 (Pt_R_1 d3_3))))))
 (let (($x716 (and (and $x714 $x710) $x709)))
 (let (($x1098 (or (= $p1_free_g101_3 nil) (= ah2_3 (uplus AH_2 (pt $p1_free_g101_3 (Pt_R_1 d6_3)))))))
 (let (($x1099 (and $x1098 invalidFree1_3)))
 (let (($x718 (= $p1_free_g101_3 $p0_free_g101_3)))
 (let (($x1102 (or $x718 invalidFree_2)))
 (let (($x720 (= $p0_free_g101_3 $M.0_2)))
 (let (($x1103 (or $x720 invalidFree_2)))
 (let (($x1106 (and (and (and $x1103 $x1102) (or (or $x1099 (and $x716 $x1090)) $x1091)) $x1089)))
 (let (($x1111 (and (and (and $x1106 $x1088) (or $x684 invalidFree1_3)) (and $x739 $x1109))))
 (let (($x575 (= loc_2 4)))
 (let (($x677 (and $x575 (not (= $i6_main0_2 1)))))
 (let (($x1071 (= invalidFree_3 invalidFree_2)))
 (let (($x638 (= H_3 H_2)))
 (let (($x639 (and (and true (= AH_3 AH_2)) $x638)))
 (let (($x628 (= $i2_main0_3 $i2_main0_2)))
 (let (($x632 (and (and (and true (= $i1_free_g20_3 $i1_free_g20_2)) $x628) $x631)))
 (let (($x655 (and $x632 $x654)))
 (let (($x600 (= $p1_free_g10_3 $p1_free_g10_2)))
 (let (($x597 (= $p0_main0_3 $p0_main0_2)))
 (let (($x594 (= $p0_free_g20_3 $p0_free_g20_2)))
 (let (($x591 (= $p0_free_g10_3 $p0_free_g10_2)))
 (let (($x601 (and (and (and (and (and true (= $M.0_3 $M.0_2)) $x591) $x594) $x597) $x600)))
 (let (($x619 (and (and (and (and (and (and $x601 $x603) $x606) $x609) $x612) $x615) $x618)))
 (let (($x622 (and $x619 $x621)))
 (let (($x1078 (and (and (and (or true invalidFree_2) (and true true)) $x622) $x655)))
 (let (($x649 (= $i6_main0_2 1)))
 (let (($x650 (and $x575 $x649)))
 (let (($x646 (= loc_3 5)))
 (let (($x584 (= $r_main0_3 $r_main01_3)))
 (let (($x585 (and $x584 true)))
 (let (($x581 (= $r_main01_3 0)))
 (let (($x1065 (or $x581 invalidFree_2)))
 (let (($x1073 (and (and (and (and (and (and $x1065 $x585) $x622) $x632) $x639) $x1071) $x646)))
 (let (($x503 (= loc_2 3)))
 (let (($x1083 (and (=> $x503 $x1073) (=> $x650 (and (and (and $x1078 $x639) $x1071) $x659)))))
 (let (($x1045 (= invalidFree_2 invalidFree_1)))
 (let (($x488 (= $r_main0_2 $r_main0_1)))
 (let (($x485 (= $i6_main0_2 $i6_main0_1)))
 (let (($x482 (= $i2_main0_2 $i2_main0_1)))
 (let (($x486 (and (and (and true (= $i1_free_g20_2 $i1_free_g20_1)) $x482) $x485)))
 (let (($x489 (and $x486 $x488)))
 (let (($x469 (= $p4_free_g20_2 $p4_free_g20_1)))
 (let (($x463 (= $p3_free_g20_2 $p3_free_g20_1)))
 (let (($x460 (= $p2_free_g20_2 $p2_free_g20_1)))
 (let (($x457 (= $p1_main0_2 $p1_main0_1)))
 (let (($x454 (= $p1_free_g10_2 $p1_free_g10_1)))
 (let (($x451 (= $p0_main0_2 $p0_main0_1)))
 (let (($x448 (= $p0_free_g20_2 $p0_free_g20_1)))
 (let (($x445 (= $p0_free_g10_2 $p0_free_g10_1)))
 (let (($x455 (and (and (and (and (and true (= $M.0_2 $M.0_1)) $x445) $x448) $x451) $x454)))
 (let (($x464 (and (and (and $x455 $x457) $x460) $x463)))
 (let (($x571 (and $x464 $x469)))
 (let (($x566 (= H_2 H3_2)))
 (let (($x564 (= AH_2 AH2_2)))
 (let (($x562 (= $p5_main0_2 $p5_main01_2)))
 (let (($x563 (and (and (= $p3_main0_2 $p3_main01_2) (= $p4_main0_2 $p4_main01_2)) $x562)))
 (let (($x567 (and (and $x563 $x564) $x566)))
 (let (($x1056 (and $x567 true)))
 (let (($x530 (and (= H2_2 (uplus h1_2 (pt $p5_main01_2 (Pt_R_0 l3_2)))) (= H3_2 (uplus h1_2 (pt $p5_main01_2 (Pt_R_0 $p3_main01_2)))))))
 (let (($x1049 (or $x530 invalidFree_1)))
 (let (($x541 (= $p5_main01_2 $M.0_1)))
 (let (($x1050 (or $x541 invalidFree_1)))
 (let (($x543 (= $p4_main01_2 $p3_main01_2)))
 (let (($x1051 (or $x543 invalidFree_1)))
 (let (($x547 (= AH2_2 (uplus AH_1 (pt l2_2 (Pt_R_1 2))))))
 (let (($x548 (= $p3_main01_2 l2_2)))
 (let (($x552 (= H2_2 (uplus H_1 (pt l2_2 (Pt_R_1 d2_2))))))
 (let (($x554 (and (and $x552 $x548) $x547)))
 (let (($x1058 (and (and (and (and (and (or $x554 invalidFree_1) $x1051) $x1050) $x1049) $x1056) $x571)))
 (let (($x432 (= loc_1 2)))
 (let (($x519 (and $x432 (not (= $i2_main0_1 1)))))
 (let (($x495 (= H_2 H_1)))
 (let (($x496 (and (and true (= AH_2 AH_1)) $x495)))
 (let (($x475 (= $p5_main0_2 $p5_main0_1)))
 (let (($x472 (= $p4_main0_2 $p4_main0_1)))
 (let (($x476 (and (and (and (and $x464 (= $p3_main0_2 $p3_main0_1)) $x469) $x472) $x475)))
 (let (($x1042 (and (and (and (or true invalidFree_1) (and true true)) $x476) $x489)))
 (let (($x436 (= $i2_main0_1 1)))
 (let (($x437 (and $x432 $x436)))
 (let (($x1063 (and (=> $x437 (and (and (and $x1042 $x496) $x1045) $x503)) (=> $x519 (and (and (and $x1058 $x489) $x1045) $x575)))))
 (let (($x1034 (= invalidFree_1 invalidFree_0)))
 (let (($x425 (= $r_main0_1 $r_main0_0)))
 (let (($x421 (= $i6_main0_1 $i6_main0_0)))
 (let (($x417 (= $i2_main0_1 $i2_main0_0)))
 (let (($x422 (and (and (and true (= $i1_free_g20_1 $i1_free_g20_0)) $x417) $x421)))
 (let (($x426 (and $x422 $x425)))
 (let (($x408 (= $p5_main0_1 $p5_main0_0)))
 (let (($x404 (= $p4_main0_1 $p4_main0_0)))
 (let (($x400 (= $p4_free_g20_1 $p4_free_g20_0)))
 (let (($x396 (= $p3_main0_1 $p3_main0_0)))
 (let (($x392 (= $p3_free_g20_1 $p3_free_g20_0)))
 (let (($x388 (= $p2_free_g20_1 $p2_free_g20_0)))
 (let (($x384 (= $p1_free_g10_1 $p1_free_g10_0)))
 (let (($x380 (= $p0_free_g20_1 $p0_free_g20_0)))
 (let (($x385 (and (and (and true (= $p0_free_g10_1 $p0_free_g10_0)) $x380) $x384)))
 (let (($x409 (and (and (and (and (and (and $x385 $x388) $x392) $x396) $x400) $x404) $x408)))
 (let (($x370 (= H_1 H1_1)))
 (let (($x367 (= AH_1 AH1_1)))
 (let (($x364 (= $p1_main0_1 $p1_main01_1)))
 (let (($x365 (and (and (= $M.0_1 $M.02_1) (= $p0_main0_1 $p0_main01_1)) $x364)))
 (let (($x372 (and (and (and $x365 $x367) $x370) true)))
 (let (($x338 (= $M.02_1 $p0_main01_1)))
 (let (($x1023 (or $x338 invalidFree_0)))
 (let (($x340 (= $p1_main01_1 $p0_main01_1)))
 (let (($x1024 (or $x340 invalidFree_0)))
 (let (($x344 (= AH1_1 (uplus AH_0 (pt l1_1 (Pt_R_1 1))))))
 (let (($x345 (= $p0_main01_1 l1_1)))
 (let (($x349 (= H1_1 (uplus H_0 (pt l1_1 (Pt_R_1 d1_1))))))
 (let (($x351 (and (and $x349 $x345) $x344)))
 (let (($x353 (= $M.01_1 nil)))
 (let (($x1026 (or $x353 invalidFree_0)))
 (let (($x1031 (and (and (and (and (and $x1026 (or $x351 invalidFree_0)) $x1024) $x1023) $x372) $x409)))
 (let (($x324 (= loc_0 1)))
 (let (($x1021 (not invalidFree_0)))
 (let (($x326 (and (and (= H_0 emp) (= AH_0 emp)) $x324)))
 (let (($x1038 (and (and $x326 $x1021) (=> $x324 (and (and (and $x1031 $x426) $x1034) $x432)))))
 (let (($x1117 (and (and $x1038 $x1063) (and $x1083 (=> $x677 (and (and (and $x1111 $x749) $x753) $x757))))))
 (and (and (and $x1117 (and $x1165 (=> $x934 (and $x1133 $x929)))) $x1188) invalidFree_5)))))))))))))))))))))))))))))))))))))))))))))))))))))))))))))))))))))))))))))))))))))))))))))))))))))))))))))))))))))))))))))))))))))))))))))))))))))))))))))))))))))))))))))))))))))))))))))))))))))))))))))))))))))))))))))))))))))))))))))))))))))))))))))))
(check-sat)
